c SAT Generator for power-law distributed variable frequencies
c -g u -v 20 -c 91 -k 3 -p 2.750000 -b 3.200000 -f /home/schmidt/Devel/ni-kop-sat/data/ensemble/ruf20-91/ruf20-91-524 -u 1 -U 1 -s 1310683840
p cnf 20 91
-11 -14 19 0
1 8 -13 0
2 -14 -20 0
2 3 8 0
-1 -3 -9 0
2 5 -7 0
2 -7 20 0
-3 11 16 0
5 11 12 0
-5 -15 17 0
10 18 20 0
11 15 -17 0
-2 8 10 0
-15 16 -20 0
-2 4 -7 0
8 -10 -12 0
1 17 18 0
1 -3 -11 0
11 -16 18 0
-3 -4 -15 0
1 -7 13 0
6 11 17 0
-7 9 -17 0
1 -5 13 0
5 15 20 0
7 13 14 0
1 6 14 0
-4 -9 -18 0
2 3 -12 0
1 -19 -20 0
-5 -8 -9 0
-4 -13 16 0
8 11 -15 0
-4 6 -12 0
-11 13 -16 0
-3 -8 20 0
3 -13 17 0
-7 14 17 0
6 -15 -16 0
1 -11 19 0
-2 4 -19 0
-1 9 17 0
4 -12 14 0
8 -11 -14 0
-7 -11 20 0
1 7 19 0
-11 14 16 0
2 -12 18 0
-10 17 20 0
6 10 11 0
-6 -7 20 0
4 -16 -17 0
-2 11 -16 0
-2 3 -12 0
4 -13 -20 0
-2 14 -17 0
8 -12 -19 0
-7 -8 9 0
3 8 -18 0
-3 7 -8 0
5 8 -15 0
2 -13 17 0
-4 13 -19 0
3 6 16 0
-8 15 16 0
-3 -5 -7 0
-1 -5 -17 0
3 7 -16 0
4 -12 -20 0
-9 -10 -16 0
9 11 14 0
11 -12 -14 0
2 12 -13 0
-2 18 -20 0
4 6 -17 0
-4 -8 18 0
6 -7 8 0
-3 4 -9 0
7 -13 17 0
-6 12 -17 0
-11 -15 -16 0
1 -2 -20 0
6 -13 19 0
11 -15 -16 0
-9 12 -19 0
-2 -9 -10 0
-7 10 14 0
-2 7 -12 0
6 -14 -20 0
12 -17 -20 0
1 2 -7 0
